n=588;
k_min=13;
k_max=13;
M=[| 74, 83, 81, 75, 72, 79, 81, 76, 72, 72, 75, 82, 71
 | 74, 83, 81, 75, 72, 79, 80, 76, 72, 72, 75, 82, 71
 | 74, 83, 81, 75, 72, 80, 80, 76, 72, 72, 75, 82, 71
 | 74, 83, 81, 75, 72, 80, 80, 76, 72, 72, 75, 82, 71
 | 74, 83, 81, 75, 72, 80, 80, 76, 72, 72, 75, 82, 71
 | 74, 83, 81, 75, 72, 80, 80, 76, 72, 72, 75, 82, 71
 | 74, 83, 81, 75, 72, 80, 80, 76, 72, 72, 75, 82, 71
 | 75, 82, 81, 75, 72, 80, 80, 76, 72, 72, 75, 82, 71
 | 75, 83, 81, 75, 72, 81, 79, 76, 72, 72, 75, 82, 71
 | 75, 83, 81, 75, 72, 81, 79, 76, 72, 72, 75, 82, 71
 | 75, 83, 81, 75, 72, 81, 79, 76, 72, 72, 75, 82, 71
 | 75, 83, 80, 75, 72, 82, 79, 76, 72, 72, 74, 81, 71
 | 75, 83, 81, 76, 72, 82, 79, 76, 72, 72, 74, 81, 71
 | 75, 82, 81, 76, 72, 83, 79, 76, 72, 72, 74, 81, 71
 | 75, 82, 81, 76, 72, 82, 79, 76, 72, 72, 74, 81, 71
 | 75, 81, 81, 76, 72, 82, 79, 76, 72, 72, 75, 81, 71
 | 75, 81, 81, 76, 72, 83, 79, 76, 72, 72, 75, 81, 71
 | 75, 80, 81, 76, 72, 82, 80, 77, 72, 72, 75, 81, 71
 | 74, 83, 81, 75, 72, 79, 81, 76, 72, 72, 76, 81, 71
 | 74, 83, 81, 75, 72, 79, 80, 76, 72, 72, 75, 81, 71
 | 74, 83, 81, 75, 72, 79, 80, 76, 72, 72, 75, 82, 71
 | 74, 83, 81, 75, 72, 79, 80, 76, 72, 72, 75, 82, 71
 | 74, 83, 81, 75, 72, 79, 80, 76, 72, 72, 75, 82, 71
 | 74, 83, 81, 75, 72, 80, 80, 76, 72, 72, 75, 82, 71
 | 74, 83, 81, 75, 72, 80, 80, 76, 72, 72, 75, 82, 72
 | 74, 83, 81, 75, 72, 80, 80, 76, 72, 72, 75, 82, 71
 | 75, 83, 81, 75, 72, 80, 80, 76, 72, 72, 75, 82, 72
 | 75, 82, 80, 75, 72, 80, 79, 76, 72, 72, 75, 82, 72
 | 75, 83, 80, 75, 72, 80, 79, 76, 72, 72, 75, 82, 71
 | 75, 83, 80, 75, 72, 81, 79, 76, 72, 72, 75, 82, 71
 | 75, 83, 80, 75, 72, 81, 79, 76, 72, 72, 75, 82, 71
 | 75, 83, 80, 75, 72, 81, 79, 76, 72, 72, 75, 82, 71
 | 75, 83, 80, 75, 72, 81, 79, 76, 72, 72, 75, 81, 71
 | 75, 83, 80, 75, 72, 82, 79, 76, 72, 72, 75, 81, 71
 | 75, 83, 80, 76, 72, 82, 79, 76, 73, 72, 74, 81, 71
 | 75, 82, 80, 76, 72, 82, 79, 76, 73, 72, 74, 81, 71
 | 75, 83, 81, 75, 72, 82, 79, 76, 72, 72, 74, 81, 71
 | 75, 82, 80, 76, 72, 82, 79, 76, 73, 72, 74, 81, 71
 | 76, 82, 80, 76, 72, 83, 79, 76, 73, 72, 74, 81, 71
 | 76, 82, 80, 76, 72, 83, 79, 76, 73, 72, 74, 81, 71
 | 76, 81, 81, 76, 72, 83, 79, 76, 72, 72, 75, 81, 71
 | 76, 81, 81, 76, 72, 83, 79, 76, 72, 72, 75, 80, 71
 | 76, 80, 81, 76, 72, 82, 79, 76, 72, 72, 75, 80, 71
 | 74, 83, 81, 75, 72, 79, 81, 76, 72, 72, 76, 81, 71
 | 74, 83, 81, 75, 72, 79, 80, 76, 72, 72, 75, 81, 72
 | 74, 83, 81, 75, 72, 79, 80, 76, 72, 72, 76, 81, 72
 | 74, 83, 81, 75, 72, 79, 80, 76, 72, 72, 75, 82, 71
 | 74, 83, 81, 75, 72, 79, 80, 76, 72, 72, 75, 81, 72
 | 74, 83, 81, 75, 72, 79, 80, 76, 72, 72, 75, 82, 72
 | 74, 83, 81, 75, 72, 79, 80, 76, 72, 72, 75, 82, 72
 | 74, 83, 81, 75, 72, 80, 80, 76, 72, 72, 75, 81, 72
 | 74, 83, 81, 75, 72, 80, 80, 76, 72, 72, 75, 81, 72
 | 74, 83, 81, 75, 72, 80, 80, 76, 72, 72, 75, 81, 72
 | 75, 83, 80, 75, 72, 80, 79, 76, 72, 72, 75, 81, 72
 | 75, 83, 80, 75, 72, 80, 79, 76, 72, 72, 75, 81, 72
 | 75, 83, 80, 75, 72, 80, 79, 76, 72, 72, 75, 81, 72
 | 75, 83, 80, 75, 72, 80, 79, 76, 72, 72, 75, 81, 72
 | 75, 83, 80, 75, 72, 80, 79, 76, 72, 72, 75, 81, 72
 | 75, 83, 80, 75, 72, 81, 79, 76, 73, 72, 75, 81, 72
 | 75, 83, 80, 75, 72, 81, 79, 76, 73, 72, 75, 81, 71
 | 75, 83, 80, 75, 72, 81, 79, 76, 73, 72, 75, 81, 71
 | 75, 83, 80, 75, 72, 81, 79, 76, 73, 72, 75, 81, 71
 | 75, 82, 80, 76, 72, 82, 79, 76, 73, 72, 74, 81, 71
 | 75, 83, 80, 75, 72, 82, 79, 76, 73, 72, 74, 81, 71
 | 75, 83, 80, 75, 72, 81, 79, 76, 73, 72, 75, 81, 71
 | 75, 83, 80, 75, 72, 81, 79, 76, 73, 72, 75, 81, 71
 | 75, 83, 80, 75, 72, 82, 79, 76, 73, 72, 75, 81, 71
 | 75, 83, 80, 75, 72, 82, 79, 76, 72, 72, 74, 81, 71
 | 75, 83, 80, 76, 72, 82, 79, 76, 73, 72, 74, 81, 71
 | 75, 82, 80, 76, 72, 82, 79, 76, 73, 72, 74, 81, 71
 | 75, 82, 80, 76, 72, 83, 79, 76, 73, 72, 74, 81, 71
 | 76, 82, 80, 76, 72, 83, 79, 76, 73, 72, 74, 80, 71
 | 76, 81, 80, 76, 72, 83, 79, 76, 73, 72, 74, 80, 71
 | 76, 81, 80, 76, 72, 83, 79, 76, 73, 72, 75, 80, 71
 | 76, 81, 80, 76, 72, 83, 79, 76, 73, 72, 75, 80, 71
 | 76, 80, 81, 76, 72, 82, 79, 76, 73, 72, 75, 80, 71
 | 76, 80, 81, 76, 72, 82, 80, 77, 72, 72, 75, 80, 71
 | 75, 82, 80, 75, 72, 81, 79, 76, 73, 72, 75, 81, 72
 | 75, 82, 80, 75, 72, 81, 79, 76, 73, 72, 75, 81, 72
 | 75, 83, 80, 75, 72, 80, 79, 76, 73, 72, 75, 81, 72
 | 75, 83, 80, 75, 72, 80, 79, 76, 73, 72, 75, 81, 72
 | 75, 83, 80, 75, 72, 80, 79, 76, 73, 72, 75, 81, 72
 | 75, 83, 80, 75, 72, 80, 79, 76, 72, 72, 75, 81, 72
 | 75, 83, 80, 75, 72, 80, 79, 76, 72, 72, 75, 81, 72
 | 75, 83, 81, 76, 72, 82, 79, 76, 72, 72, 74, 81, 71
 | 75, 82, 80, 76, 72, 82, 79, 76, 72, 72, 74, 81, 71
 | 75, 82, 80, 76, 72, 83, 79, 76, 72, 72, 74, 81, 71
 | 74, 83, 80, 75, 72, 80, 80, 76, 72, 72, 75, 81, 72
 | 74, 83, 80, 75, 72, 80, 80, 76, 72, 72, 75, 81, 72
 | 74, 83, 81, 75, 72, 79, 80, 76, 72, 72, 75, 81, 72
 | 74, 83, 81, 75, 72, 79, 80, 76, 72, 72, 75, 81, 72
 | 74, 83, 81, 75, 72, 79, 80, 76, 72, 72, 75, 81, 72
 | 74, 82, 81, 75, 72, 79, 80, 76, 72, 72, 75, 81, 72
 | 74, 83, 81, 75, 72, 79, 80, 76, 72, 72, 76, 81, 72
 | 74, 83, 81, 75, 72, 79, 80, 76, 72, 72, 76, 81, 72
 | 74, 83, 81, 75, 72, 79, 80, 76, 72, 72, 76, 81, 72
 | 74, 83, 81, 75, 72, 79, 80, 76, 72, 72, 76, 81, 72
 | 74, 83, 81, 75, 72, 79, 80, 76, 72, 72, 76, 81, 72
 | 75, 83, 80, 76, 72, 82, 79, 76, 73, 72, 74, 81, 71
 | 75, 83, 80, 76, 72, 82, 79, 76, 72, 72, 74, 81, 71
 | 75, 82, 81, 76, 72, 82, 79, 76, 72, 72, 74, 81, 71
 | 75, 82, 81, 76, 72, 82, 79, 76, 72, 72, 74, 81, 71
 | 75, 83, 81, 75, 72, 81, 79, 76, 72, 72, 75, 82, 71
 | 75, 83, 81, 75, 72, 82, 79, 76, 72, 72, 74, 82, 71
 | 75, 82, 81, 76, 72, 82, 79, 76, 72, 72, 75, 81, 71
 | 75, 81, 81, 76, 72, 83, 79, 76, 72, 72, 75, 81, 71
 | 76, 80, 81, 77, 72, 82, 79, 77, 73, 72, 75, 80, 71
 | 76, 80, 80, 76, 72, 82, 79, 77, 73, 72, 75, 80, 71
 | 74, 81, 82, 75, 72, 80, 81, 76, 72, 72, 75, 83, 71
 | 74, 82, 82, 75, 72, 80, 81, 76, 72, 72, 75, 83, 71
 | 74, 82, 82, 75, 72, 80, 80, 76, 72, 72, 75, 83, 71
 | 74, 82, 81, 75, 72, 80, 80, 76, 72, 72, 75, 83, 71
 | 74, 82, 81, 75, 72, 81, 80, 76, 72, 72, 75, 83, 71
 | 75, 82, 81, 75, 72, 81, 80, 76, 72, 72, 75, 83, 71
 | 75, 82, 82, 75, 72, 81, 80, 76, 72, 72, 75, 82, 71
 | 74, 81, 82, 76, 72, 81, 80, 76, 72, 71, 75, 83, 71
 | 74, 81, 82, 76, 72, 81, 81, 76, 72, 71, 75, 83, 71
 | 74, 81, 82, 75, 72, 81, 81, 76, 72, 71, 75, 83, 71
 | 74, 81, 82, 75, 72, 81, 81, 76, 72, 72, 75, 83, 71
 | 74, 81, 82, 75, 72, 80, 81, 76, 72, 72, 75, 83, 71
 | 74, 81, 82, 75, 72, 81, 80, 76, 72, 72, 75, 83, 71
 | 74, 81, 82, 75, 72, 81, 80, 76, 72, 72, 75, 83, 71
 | 74, 81, 82, 75, 72, 81, 80, 76, 72, 72, 75, 83, 71
 | 74, 81, 82, 76, 72, 81, 80, 76, 72, 71, 75, 83, 71
 | 74, 82, 82, 75, 72, 81, 80, 76, 72, 72, 75, 83, 71
 | 74, 82, 81, 75, 72, 81, 80, 76, 72, 72, 75, 83, 71
 | 75, 82, 82, 75, 72, 81, 80, 76, 72, 72, 75, 83, 71
 | 75, 81, 82, 76, 72, 81, 80, 76, 72, 72, 75, 83, 71
 | 75, 82, 82, 76, 72, 81, 80, 76, 72, 72, 75, 82, 71
 | 74, 82, 81, 75, 72, 81, 80, 76, 72, 72, 75, 83, 71
 | 75, 82, 81, 75, 72, 81, 80, 76, 72, 72, 75, 83, 71
 | 75, 82, 81, 75, 72, 81, 80, 76, 72, 72, 75, 82, 71
 | 74, 81, 83, 76, 72, 80, 81, 76, 71, 71, 75, 82, 71
 | 74, 81, 83, 76, 72, 80, 81, 76, 71, 71, 75, 82, 71
 | 74, 81, 83, 76, 71, 81, 81, 76, 71, 71, 75, 82, 71
 | 74, 80, 83, 76, 71, 81, 81, 76, 71, 71, 75, 82, 70
 | 75, 80, 82, 76, 72, 81, 81, 77, 72, 71, 76, 81, 71
 | 74, 80, 83, 76, 72, 80, 82, 77, 71, 71, 76, 81, 71
 | 74, 80, 83, 76, 72, 80, 82, 77, 71, 71, 76, 81, 71
 | 74, 81, 82, 76, 72, 80, 82, 77, 71, 71, 76, 81, 71
 | 74, 81, 83, 76, 72, 80, 82, 76, 71, 71, 75, 82, 71
 | 74, 81, 83, 76, 72, 80, 81, 76, 71, 71, 75, 82, 71
 | 74, 81, 83, 76, 71, 80, 81, 76, 71, 71, 75, 82, 70
 | 74, 80, 83, 76, 71, 81, 81, 76, 71, 71, 75, 82, 70
 | 74, 80, 83, 76, 71, 81, 81, 77, 71, 71, 75, 82, 70
 | 74, 81, 83, 76, 72, 80, 82, 77, 71, 71, 75, 82, 71
 | 74, 80, 83, 76, 72, 80, 82, 77, 71, 71, 76, 81, 71
 | 74, 80, 83, 76, 72, 80, 82, 77, 71, 71, 76, 81, 70
 | 74, 80, 83, 76, 72, 80, 82, 77, 71, 71, 76, 81, 71
 | 74, 80, 83, 76, 72, 80, 82, 77, 71, 71, 76, 81, 71
 | 74, 80, 82, 76, 72, 80, 82, 77, 71, 71, 76, 81, 71
 | 75, 80, 82, 76, 72, 81, 81, 77, 72, 71, 75, 81, 71
 | 74, 81, 83, 76, 72, 80, 82, 77, 71, 71, 75, 82, 71
 | 74, 81, 82, 76, 72, 80, 82, 77, 71, 71, 76, 81, 71
 | 74, 81, 82, 76, 72, 80, 82, 77, 71, 71, 76, 82, 71
 | 74, 80, 82, 76, 72, 81, 82, 77, 72, 71, 75, 81, 71
 | 74, 80, 83, 76, 72, 81, 81, 77, 72, 71, 75, 82, 70
 | 74, 80, 83, 76, 71, 81, 81, 76, 71, 71, 75, 82, 70
 | 74, 81, 83, 76, 71, 80, 81, 76, 71, 71, 75, 82, 71
 | 74, 80, 82, 76, 72, 79, 82, 77, 71, 71, 76, 80, 71
 | 74, 79, 82, 76, 72, 80, 82, 77, 72, 72, 76, 80, 71
 | 75, 79, 82, 77, 72, 80, 82, 78, 72, 72, 76, 80, 71
 | 74, 80, 82, 76, 72, 79, 83, 77, 71, 71, 76, 80, 71
 | 74, 80, 82, 76, 72, 79, 83, 77, 72, 72, 76, 80, 71
 | 74, 79, 81, 76, 72, 78, 83, 78, 72, 72, 77, 79, 71
 | 74, 79, 80, 77, 73, 78, 83, 78, 72, 72, 77, 79, 72
 | 75, 78, 80, 77, 73, 78, 82, 78, 72, 72, 78, 79, 72
 | 75, 78, 80, 77, 73, 78, 83, 78, 72, 72, 78, 78, 72
 | 75, 78, 80, 77, 73, 78, 82, 79, 72, 72, 77, 78, 71
 | 75, 78, 81, 77, 72, 79, 82, 78, 72, 72, 77, 79, 71
 | 74, 79, 82, 77, 72, 79, 82, 78, 72, 72, 77, 80, 71
 | 74, 79, 82, 76, 72, 79, 83, 78, 72, 72, 77, 80, 71
 | 74, 79, 81, 76, 72, 79, 83, 78, 72, 72, 77, 80, 71
 | 74, 79, 81, 77, 73, 78, 83, 78, 72, 72, 77, 79, 71
 | 74, 79, 81, 77, 73, 78, 83, 78, 72, 72, 77, 79, 71
 | 75, 79, 81, 77, 72, 78, 83, 78, 72, 72, 77, 79, 71
 | 74, 79, 81, 77, 72, 79, 83, 78, 72, 72, 77, 80, 71
 | 74, 79, 82, 76, 72, 79, 83, 78, 72, 72, 77, 80, 71
 | 74, 80, 82, 76, 72, 79, 83, 77, 71, 72, 76, 80, 71
 | 74, 79, 81, 76, 72, 78, 83, 78, 72, 72, 77, 80, 71
 | 74, 79, 81, 77, 72, 78, 83, 78, 72, 72, 77, 79, 71
 | 74, 79, 81, 77, 72, 78, 83, 78, 72, 72, 77, 79, 71
 | 74, 79, 82, 76, 72, 79, 83, 77, 72, 72, 76, 80, 71
 | 75, 79, 82, 77, 72, 79, 82, 78, 72, 72, 76, 80, 71
 | 75, 78, 81, 77, 72, 79, 83, 78, 72, 72, 77, 79, 71
 | 75, 78, 81, 77, 72, 79, 83, 78, 72, 72, 77, 79, 71
 | 74, 80, 82, 76, 72, 79, 83, 77, 71, 72, 76, 80, 71
 | 74, 80, 82, 76, 72, 79, 83, 77, 71, 71, 76, 80, 71
 | 74, 80, 82, 76, 72, 79, 83, 77, 71, 72, 76, 80, 71
 | 74, 80, 82, 76, 72, 79, 83, 77, 72, 72, 77, 80, 71
 | 74, 80, 81, 76, 72, 79, 83, 78, 72, 72, 77, 80, 71
 | 74, 80, 82, 76, 72, 79, 83, 78, 72, 72, 77, 80, 71
 | 74, 80, 81, 76, 72, 78, 83, 78, 72, 72, 77, 80, 71
 | 74, 80, 81, 76, 72, 79, 82, 77, 72, 72, 77, 80, 71
 | 74, 80, 82, 76, 72, 79, 83, 77, 71, 72, 76, 80, 71
 | 74, 79, 82, 76, 72, 79, 82, 78, 72, 72, 76, 80, 71
 | 74, 80, 81, 76, 72, 79, 83, 77, 72, 72, 77, 80, 71
 | 74, 80, 82, 76, 72, 79, 83, 77, 71, 71, 76, 81, 71
 | 74, 80, 82, 76, 72, 79, 83, 77, 71, 71, 76, 80, 71
 | 75, 79, 81, 77, 72, 79, 82, 78, 72, 72, 76, 80, 71
 | 75, 78, 81, 77, 72, 79, 83, 78, 72, 72, 77, 79, 71
 | 75, 78, 81, 77, 72, 79, 83, 78, 72, 72, 77, 79, 71
 | 75, 78, 81, 77, 73, 78, 83, 78, 72, 72, 77, 79, 71
 | 75, 78, 81, 77, 73, 78, 83, 78, 72, 72, 77, 79, 72
 | 74, 79, 81, 77, 73, 78, 83, 78, 72, 72, 77, 79, 72
 | 74, 79, 81, 77, 73, 78, 83, 78, 72, 72, 77, 79, 72
 | 74, 79, 81, 77, 73, 78, 82, 78, 72, 72, 77, 79, 72
 | 75, 78, 80, 77, 73, 78, 83, 78, 72, 72, 78, 79, 72
 | 75, 78, 81, 77, 73, 78, 83, 78, 72, 72, 77, 79, 71
 | 75, 78, 80, 77, 73, 78, 83, 78, 72, 72, 78, 79, 72
 | 75, 78, 80, 77, 73, 78, 83, 78, 72, 72, 78, 78, 72
 | 75, 78, 80, 77, 73, 78, 83, 79, 72, 72, 77, 78, 72
 | 75, 78, 81, 77, 72, 79, 83, 78, 72, 72, 77, 79, 71
 | 74, 79, 82, 76, 72, 79, 83, 77, 71, 72, 76, 80, 71
 | 74, 79, 82, 77, 72, 79, 82, 78, 72, 72, 76, 80, 71
 | 74, 79, 81, 77, 72, 79, 83, 78, 72, 72, 77, 80, 71
 | 75, 79, 81, 77, 72, 79, 83, 78, 72, 72, 77, 79, 71
 | 75, 78, 81, 77, 72, 79, 83, 78, 72, 72, 77, 79, 71
 | 75, 78, 81, 77, 73, 78, 83, 78, 72, 72, 77, 79, 71
 | 75, 78, 81, 77, 73, 78, 83, 78, 72, 72, 77, 79, 72
 | 74, 79, 81, 77, 73, 78, 83, 78, 72, 72, 77, 79, 72
 | 74, 79, 81, 77, 73, 78, 83, 78, 72, 72, 77, 79, 72
 | 74, 79, 82, 76, 72, 79, 83, 78, 72, 72, 77, 80, 71
 | 74, 79, 82, 76, 72, 79, 83, 78, 72, 72, 76, 80, 71
 | 75, 79, 81, 77, 72, 79, 83, 78, 72, 72, 77, 79, 71
 | 75, 79, 81, 77, 72, 79, 83, 78, 72, 72, 77, 79, 71
 | 74, 79, 81, 77, 72, 78, 83, 78, 72, 72, 77, 79, 71
 | 74, 79, 81, 77, 72, 78, 83, 78, 72, 72, 77, 79, 71
 | 74, 79, 81, 76, 72, 78, 83, 78, 72, 72, 77, 80, 71
 | 74, 79, 82, 76, 72, 79, 82, 77, 72, 72, 76, 80, 71
 | 74, 79, 82, 76, 72, 79, 83, 77, 71, 72, 76, 80, 71
 | 74, 80, 81, 76, 72, 78, 83, 78, 72, 72, 77, 80, 71
 | 77, 72, 74, 82, 77, 73, 77, 83, 74, 75, 82, 72, 75
 | 77, 72, 75, 81, 77, 73, 77, 83, 75, 75, 82, 72, 75
 | 78, 72, 75, 81, 76, 73, 77, 83, 75, 75, 82, 72, 75
 | 78, 71, 75, 82, 76, 73, 77, 83, 75, 75, 81, 72, 75
 | 78, 71, 75, 81, 76, 73, 77, 83, 75, 75, 81, 73, 75
 | 78, 72, 75, 81, 76, 74, 77, 82, 75, 75, 80, 73, 75
 | 77, 72, 75, 81, 76, 73, 77, 82, 74, 75, 82, 73, 75
 | 77, 72, 75, 81, 76, 73, 77, 82, 74, 75, 82, 73, 75
 | 77, 72, 75, 81, 76, 73, 77, 82, 75, 75, 81, 73, 75
 | 78, 72, 75, 81, 76, 73, 77, 83, 75, 75, 81, 73, 75
 | 78, 72, 75, 81, 76, 73, 78, 83, 75, 75, 81, 73, 75
 | 78, 72, 75, 81, 76, 74, 78, 83, 75, 75, 81, 73, 75
 | 78, 72, 75, 81, 76, 74, 78, 83, 75, 75, 80, 73, 75
 | 78, 71, 75, 81, 76, 73, 77, 82, 75, 76, 80, 73, 75
 | 78, 71, 74, 82, 77, 73, 77, 83, 75, 76, 81, 72, 75
 | 78, 71, 74, 82, 77, 73, 77, 83, 75, 76, 81, 72, 75
 | 78, 71, 74, 82, 77, 73, 77, 83, 75, 75, 82, 72, 75
 | 77, 71, 74, 82, 77, 73, 77, 83, 75, 76, 82, 72, 76
 | 77, 72, 75, 81, 76, 73, 78, 82, 74, 75, 82, 73, 75
 | 77, 72, 75, 81, 76, 73, 78, 82, 74, 75, 81, 73, 75
 | 78, 71, 74, 82, 77, 73, 77, 82, 75, 76, 81, 72, 75
 | 77, 72, 75, 81, 76, 73, 78, 82, 74, 75, 81, 73, 75
 | 78, 71, 74, 82, 77, 73, 77, 83, 75, 75, 81, 72, 75
 | 78, 72, 75, 81, 76, 74, 78, 83, 75, 75, 80, 73, 75
 | 78, 71, 75, 82, 76, 74, 77, 82, 75, 76, 80, 73, 75
 | 78, 72, 75, 81, 76, 74, 77, 83, 75, 75, 80, 73, 75
 | 77, 72, 74, 82, 77, 73, 77, 82, 74, 75, 82, 72, 75
 | 77, 71, 74, 82, 77, 72, 77, 83, 75, 75, 83, 72, 76
 | 77, 72, 75, 82, 77, 73, 77, 83, 74, 75, 82, 72, 75
 | 77, 71, 74, 82, 77, 73, 77, 83, 75, 75, 82, 72, 76
 | 77, 72, 74, 82, 77, 72, 77, 82, 74, 75, 83, 72, 76
 | 77, 72, 75, 81, 76, 73, 78, 82, 74, 75, 82, 73, 75
 | 77, 72, 74, 82, 78, 72, 76, 81, 75, 76, 81, 72, 77
 | 77, 71, 74, 83, 78, 72, 76, 81, 75, 76, 81, 72, 77
 | 77, 71, 73, 83, 78, 72, 76, 81, 75, 76, 81, 72, 77
 | 78, 71, 73, 83, 78, 72, 76, 81, 75, 76, 82, 71, 77
 | 78, 71, 73, 83, 78, 72, 76, 81, 75, 76, 82, 71, 77
 | 78, 71, 73, 83, 78, 72, 76, 82, 76, 77, 82, 71, 77
 | 78, 70, 73, 83, 78, 72, 76, 82, 76, 77, 82, 71, 77
 | 79, 70, 73, 83, 78, 72, 76, 82, 76, 77, 81, 71, 77
 | 79, 70, 73, 83, 78, 72, 76, 82, 76, 77, 81, 71, 77
 | 79, 70, 73, 83, 78, 72, 76, 82, 76, 77, 80, 71, 76
 | 79, 70, 74, 82, 77, 73, 76, 82, 76, 77, 80, 72, 76
 | 80, 70, 74, 82, 77, 73, 76, 81, 77, 77, 79, 72, 76
 | 80, 71, 74, 83, 77, 74, 76, 80, 77, 77, 78, 72, 75
 | 80, 70, 74, 83, 77, 73, 76, 81, 76, 77, 79, 72, 76
 | 79, 70, 74, 82, 77, 73, 76, 82, 76, 77, 80, 72, 76
 | 79, 70, 73, 83, 78, 72, 76, 82, 76, 77, 81, 71, 76
 | 78, 70, 73, 82, 78, 72, 76, 82, 76, 77, 81, 71, 77
 | 78, 71, 73, 83, 78, 72, 76, 82, 75, 76, 82, 71, 77
 | 78, 71, 73, 83, 78, 72, 76, 82, 75, 76, 82, 71, 77
 | 77, 71, 74, 83, 78, 72, 76, 81, 75, 76, 82, 72, 77
 | 77, 71, 74, 82, 78, 72, 76, 81, 75, 76, 81, 72, 77
 | 77, 72, 74, 82, 78, 72, 76, 81, 75, 76, 81, 72, 77
 | 77, 71, 73, 83, 78, 72, 76, 81, 75, 77, 81, 72, 77
 | 78, 71, 73, 83, 78, 72, 76, 81, 76, 77, 81, 71, 78
 | 78, 71, 73, 82, 78, 72, 76, 81, 76, 77, 81, 71, 77
 | 78, 71, 73, 82, 78, 72, 76, 81, 76, 77, 81, 71, 77
 | 78, 70, 73, 82, 78, 72, 76, 81, 76, 77, 81, 71, 77
 | 78, 70, 73, 83, 78, 72, 76, 81, 76, 77, 81, 71, 77
 | 78, 70, 73, 83, 78, 72, 76, 81, 76, 77, 81, 71, 77
 | 79, 70, 73, 83, 78, 72, 76, 81, 76, 77, 81, 71, 77
 | 79, 70, 73, 82, 78, 72, 76, 81, 76, 77, 81, 71, 77
 | 79, 70, 73, 82, 78, 72, 76, 81, 76, 77, 80, 71, 77
 | 79, 70, 73, 83, 78, 72, 76, 81, 76, 77, 80, 71, 77
 | 79, 70, 73, 82, 78, 72, 76, 81, 77, 77, 80, 71, 76
 | 80, 70, 73, 82, 78, 72, 76, 81, 77, 77, 79, 71, 76
 | 80, 70, 73, 83, 78, 73, 76, 81, 77, 77, 79, 71, 76
 | 80, 70, 73, 83, 78, 73, 76, 81, 77, 77, 79, 71, 76
 | 80, 70, 73, 82, 77, 73, 76, 81, 77, 77, 79, 72, 76
 | 80, 71, 74, 83, 77, 73, 76, 80, 77, 77, 78, 72, 76
 | 80, 70, 74, 83, 77, 73, 76, 81, 77, 77, 79, 72, 76
 | 79, 70, 73, 82, 78, 72, 76, 82, 76, 77, 80, 71, 76
 | 80, 70, 73, 82, 78, 72, 76, 81, 77, 77, 80, 71, 77
 | 78, 70, 73, 83, 78, 72, 76, 82, 76, 76, 82, 71, 77
 | 79, 70, 73, 83, 78, 72, 76, 81, 76, 77, 80, 71, 77
 | 79, 70, 73, 82, 78, 72, 76, 81, 77, 77, 80, 71, 77
 | 77, 71, 73, 83, 78, 72, 76, 81, 75, 76, 82, 72, 77
 | 78, 71, 73, 82, 78, 72, 76, 81, 76, 77, 81, 71, 77
 | 78, 71, 73, 83, 78, 72, 76, 82, 76, 77, 82, 71, 77
 | 78, 70, 73, 83, 78, 72, 76, 81, 76, 77, 81, 71, 77
 | 78, 70, 73, 83, 79, 71, 75, 80, 76, 78, 81, 71, 78
 | 79, 70, 72, 83, 79, 71, 75, 80, 77, 78, 80, 71, 78
 | 79, 69, 72, 83, 80, 71, 75, 80, 77, 78, 80, 70, 79
 | 79, 69, 72, 82, 80, 71, 75, 80, 77, 78, 80, 70, 78
 | 80, 69, 72, 83, 80, 71, 75, 80, 77, 78, 80, 70, 78
 | 80, 69, 72, 83, 79, 71, 75, 80, 77, 78, 80, 70, 78
 | 80, 69, 72, 82, 79, 72, 75, 80, 78, 78, 79, 70, 78
 | 80, 69, 72, 83, 80, 71, 75, 80, 77, 78, 80, 70, 78
 | 78, 70, 72, 83, 80, 71, 75, 80, 77, 78, 80, 71, 79
 | 79, 70, 72, 83, 80, 71, 75, 80, 77, 78, 80, 70, 79
 | 79, 69, 72, 83, 80, 71, 75, 80, 77, 78, 80, 70, 79
 | 79, 69, 72, 82, 80, 71, 75, 80, 77, 78, 80, 70, 79
 | 80, 69, 72, 83, 80, 71, 75, 80, 77, 79, 80, 70, 79
 | 80, 69, 72, 82, 80, 71, 75, 80, 78, 79, 79, 70, 79
 | 80, 69, 72, 82, 80, 71, 74, 80, 78, 79, 79, 70, 78
 | 80, 69, 72, 82, 80, 71, 75, 80, 78, 79, 79, 70, 78
 | 79, 70, 72, 83, 80, 71, 75, 80, 77, 78, 80, 70, 79
 | 79, 70, 72, 83, 80, 71, 75, 80, 77, 78, 80, 71, 79
 | 79, 70, 72, 83, 80, 71, 75, 80, 77, 78, 80, 70, 79
 | 79, 70, 72, 83, 80, 71, 75, 80, 77, 78, 80, 70, 78
 | 79, 69, 72, 82, 80, 71, 75, 80, 77, 78, 80, 70, 79
 | 80, 69, 72, 82, 80, 71, 75, 80, 78, 79, 79, 70, 78
 | 80, 69, 72, 82, 79, 71, 75, 80, 78, 78, 79, 70, 78
 | 80, 69, 72, 82, 79, 71, 75, 80, 78, 79, 79, 70, 78
 | 81, 69, 72, 82, 79, 72, 75, 80, 78, 79, 79, 70, 78
 | 81, 69, 72, 83, 79, 71, 74, 80, 78, 79, 79, 70, 78
 | 81, 69, 72, 83, 79, 72, 75, 80, 78, 79, 79, 70, 78
 | 81, 69, 72, 82, 79, 72, 75, 80, 78, 78, 79, 70, 78
 | 81, 69, 72, 83, 79, 72, 75, 80, 78, 79, 79, 70, 78
 | 79, 69, 72, 82, 80, 71, 75, 80, 77, 78, 80, 70, 78
 | 79, 69, 72, 83, 80, 71, 75, 80, 77, 78, 80, 70, 79
 | 80, 69, 72, 83, 80, 71, 75, 80, 77, 79, 80, 70, 79
 | 79, 69, 72, 82, 80, 71, 75, 80, 77, 78, 80, 70, 79
 | 80, 68, 71, 81, 82, 71, 73, 78, 79, 80, 78, 70, 81
 | 80, 68, 71, 81, 83, 71, 73, 78, 79, 81, 78, 69, 81
 | 81, 68, 71, 80, 83, 71, 73, 78, 79, 81, 78, 69, 82
 | 81, 69, 71, 80, 82, 71, 73, 77, 80, 81, 77, 70, 82
 | 81, 69, 71, 79, 83, 71, 73, 77, 80, 81, 77, 70, 82
 | 80, 69, 71, 79, 83, 71, 73, 77, 80, 81, 77, 70, 82
 | 80, 70, 72, 79, 83, 71, 73, 77, 80, 80, 77, 70, 82
 | 81, 68, 71, 81, 82, 71, 73, 78, 79, 81, 78, 69, 81
 | 81, 68, 71, 80, 83, 70, 73, 78, 79, 81, 78, 69, 82
 | 81, 68, 71, 80, 83, 71, 73, 78, 80, 81, 77, 69, 82
 | 81, 69, 71, 80, 82, 71, 73, 78, 79, 81, 77, 70, 82
 | 81, 69, 71, 80, 83, 71, 73, 77, 80, 81, 77, 69, 82
 | 81, 69, 71, 80, 82, 71, 73, 77, 79, 81, 77, 70, 83
 | 81, 69, 71, 80, 83, 71, 73, 77, 80, 81, 77, 70, 83
 | 80, 69, 71, 79, 83, 71, 73, 77, 79, 81, 77, 70, 83
 | 81, 69, 71, 79, 83, 71, 73, 77, 80, 81, 77, 70, 82
 | 80, 69, 71, 79, 83, 71, 73, 77, 80, 81, 77, 70, 82
 | 81, 69, 71, 79, 83, 71, 73, 77, 80, 81, 77, 70, 82
 | 81, 69, 71, 79, 83, 71, 73, 77, 80, 81, 77, 70, 82
 | 80, 69, 71, 79, 83, 71, 73, 77, 80, 81, 77, 70, 82
 | 80, 70, 72, 79, 83, 71, 73, 77, 80, 81, 77, 70, 82
 | 81, 68, 71, 80, 82, 71, 73, 77, 80, 81, 77, 69, 82
 | 81, 69, 71, 80, 82, 71, 73, 78, 80, 81, 77, 70, 82
 | 81, 68, 71, 80, 83, 71, 73, 78, 79, 81, 78, 69, 81
 | 81, 68, 71, 80, 83, 71, 73, 78, 80, 81, 77, 69, 82
 | 80, 70, 72, 79, 83, 71, 73, 77, 80, 81, 77, 70, 81
 | 80, 70, 72, 79, 83, 72, 73, 77, 80, 80, 77, 71, 81
 | 80, 70, 72, 79, 83, 71, 73, 77, 80, 81, 77, 70, 81
 | 80, 70, 72, 79, 83, 71, 73, 77, 80, 81, 77, 70, 82
 | 81, 69, 71, 79, 83, 71, 73, 77, 80, 81, 77, 70, 82
 | 81, 70, 72, 79, 83, 71, 73, 77, 80, 81, 77, 70, 81
 | 81, 69, 71, 79, 83, 71, 73, 77, 80, 81, 77, 70, 83
 | 81, 69, 71, 80, 83, 71, 73, 78, 79, 81, 78, 69, 82
 | 81, 68, 71, 80, 83, 71, 73, 77, 80, 81, 77, 69, 82
 | 81, 69, 71, 80, 83, 71, 73, 77, 80, 81, 77, 70, 82
 | 81, 69, 71, 79, 83, 71, 73, 77, 80, 81, 77, 70, 82
 | 81, 69, 71, 79, 83, 71, 73, 77, 80, 81, 77, 70, 82
 | 81, 69, 71, 79, 83, 71, 73, 77, 80, 81, 77, 70, 82
 | 80, 69, 72, 79, 83, 71, 73, 77, 80, 81, 77, 70, 82
 | 81, 69, 71, 79, 83, 71, 73, 77, 80, 81, 77, 70, 82
 | 80, 69, 71, 80, 83, 71, 73, 78, 79, 80, 78, 70, 82
 | 80, 69, 71, 80, 83, 71, 73, 78, 79, 80, 78, 70, 82
 | 80, 69, 72, 80, 83, 71, 73, 78, 79, 80, 78, 70, 82
 | 80, 69, 71, 80, 83, 71, 73, 78, 79, 80, 78, 70, 82
 | 80, 69, 71, 80, 82, 71, 73, 77, 79, 80, 77, 70, 82
 | 80, 69, 72, 79, 83, 71, 73, 77, 79, 80, 77, 70, 82
 | 80, 70, 72, 79, 83, 71, 73, 77, 79, 80, 77, 70, 82
 | 80, 69, 72, 79, 83, 71, 73, 77, 79, 80, 77, 70, 82
 | 80, 70, 72, 79, 83, 71, 73, 77, 79, 80, 77, 70, 82
 | 80, 70, 72, 79, 83, 71, 74, 77, 79, 80, 77, 71, 82
 | 80, 70, 72, 79, 83, 71, 74, 77, 79, 80, 77, 70, 82
 | 80, 69, 72, 80, 83, 71, 73, 78, 79, 80, 78, 70, 82
 | 80, 69, 72, 79, 83, 71, 73, 77, 79, 80, 77, 70, 82
 | 80, 70, 72, 79, 83, 71, 73, 77, 79, 80, 77, 70, 82
 | 80, 70, 72, 79, 83, 71, 73, 77, 79, 80, 77, 70, 82
 | 80, 70, 72, 79, 82, 71, 74, 77, 79, 80, 77, 70, 82
 | 80, 70, 72, 79, 83, 71, 73, 77, 79, 80, 77, 71, 82
 | 80, 70, 72, 79, 83, 71, 73, 77, 79, 80, 77, 71, 82
 | 80, 69, 72, 79, 83, 71, 73, 77, 79, 80, 77, 70, 82
 | 80, 69, 72, 79, 83, 71, 73, 77, 79, 80, 77, 70, 82
 | 80, 69, 71, 80, 83, 71, 73, 78, 79, 80, 78, 70, 82
 | 80, 69, 71, 80, 83, 71, 73, 78, 79, 80, 78, 70, 82
 | 80, 69, 71, 80, 82, 71, 73, 78, 79, 80, 77, 70, 82
 | 80, 70, 72, 79, 83, 71, 73, 77, 79, 80, 77, 70, 82
 | 80, 70, 72, 79, 83, 71, 73, 77, 79, 80, 77, 70, 82
 | 80, 70, 72, 79, 83, 71, 73, 77, 79, 80, 77, 70, 82
 | 80, 69, 72, 79, 83, 71, 73, 77, 79, 80, 77, 70, 82
 | 80, 70, 72, 79, 83, 71, 73, 77, 79, 80, 77, 70, 82
 | 81, 68, 71, 80, 83, 71, 73, 77, 80, 82, 77, 69, 81
 | 81, 68, 71, 79, 83, 71, 73, 77, 80, 82, 77, 69, 82
 | 81, 69, 71, 79, 83, 71, 73, 77, 80, 82, 77, 70, 82
 | 81, 69, 71, 79, 82, 71, 73, 77, 80, 81, 77, 70, 82
 | 81, 69, 71, 79, 82, 71, 73, 77, 80, 81, 77, 70, 82
 | 81, 69, 71, 79, 83, 71, 73, 77, 80, 81, 77, 70, 82
 | 81, 69, 71, 79, 83, 71, 73, 77, 80, 82, 77, 69, 82
 | 82, 68, 71, 79, 83, 71, 73, 77, 80, 82, 77, 69, 82
 | 82, 69, 71, 79, 83, 71, 73, 77, 81, 82, 77, 70, 81
 | 81, 69, 71, 79, 83, 71, 73, 77, 80, 81, 77, 70, 82
 | 81, 69, 71, 79, 82, 71, 73, 77, 80, 81, 77, 70, 82
 | 81, 69, 71, 79, 83, 71, 73, 77, 80, 81, 77, 70, 82
 | 81, 69, 71, 79, 83, 71, 73, 77, 80, 82, 77, 69, 82
 | 82, 69, 71, 79, 83, 71, 73, 77, 81, 82, 77, 69, 82
 | 81, 68, 71, 80, 83, 71, 73, 77, 80, 82, 77, 69, 82
 | 81, 68, 71, 80, 83, 71, 73, 77, 80, 82, 77, 69, 82
 | 81, 69, 71, 79, 83, 71, 73, 77, 80, 82, 77, 69, 82
 | 81, 69, 71, 79, 83, 71, 73, 77, 80, 81, 77, 70, 82
 | 81, 69, 71, 79, 82, 71, 73, 77, 80, 81, 77, 70, 82
 | 81, 69, 71, 79, 83, 71, 73, 77, 81, 82, 77, 70, 81
 | 81, 69, 71, 79, 83, 71, 73, 77, 80, 82, 77, 69, 82
 | 82, 68, 71, 80, 83, 71, 73, 77, 80, 82, 77, 69, 82
 | 81, 69, 71, 79, 83, 71, 73, 77, 80, 81, 77, 70, 82
 | 82, 68, 71, 79, 83, 71, 73, 77, 80, 82, 77, 69, 82
 | 82, 69, 71, 81, 81, 71, 73, 78, 81, 81, 77, 70, 79
 | 82, 69, 71, 81, 81, 71, 73, 78, 81, 81, 77, 70, 79
 | 82, 69, 71, 80, 81, 71, 73, 78, 81, 81, 77, 70, 79
 | 82, 69, 71, 80, 81, 71, 73, 78, 81, 81, 77, 70, 79
 | 82, 69, 71, 80, 80, 72, 73, 78, 81, 81, 77, 70, 79
 | 83, 69, 72, 80, 80, 72, 74, 78, 81, 80, 77, 70, 78
 | 83, 70, 72, 80, 79, 72, 74, 78, 80, 80, 77, 70, 78
 | 83, 70, 72, 80, 79, 73, 74, 78, 80, 79, 77, 71, 77
 | 83, 70, 72, 80, 79, 72, 74, 78, 80, 80, 77, 71, 78
 | 83, 69, 72, 81, 80, 72, 74, 78, 80, 80, 77, 70, 78
 | 83, 69, 72, 81, 80, 72, 74, 78, 80, 80, 77, 70, 78
 | 82, 69, 71, 81, 80, 71, 73, 78, 81, 81, 77, 70, 79
 | 82, 69, 71, 81, 81, 71, 73, 78, 81, 81, 77, 70, 79
 | 83, 69, 71, 81, 80, 72, 74, 78, 81, 81, 77, 70, 79
 | 83, 70, 72, 80, 79, 72, 74, 78, 80, 80, 77, 71, 78
 | 83, 70, 72, 80, 79, 73, 74, 78, 80, 79, 77, 71, 77
 | 83, 70, 72, 80, 79, 72, 74, 78, 80, 80, 77, 70, 78
 | 83, 69, 72, 80, 80, 72, 74, 78, 80, 80, 77, 70, 78
 | 83, 69, 71, 81, 80, 72, 73, 78, 81, 81, 77, 70, 79
 | 83, 69, 71, 81, 80, 72, 73, 78, 81, 81, 77, 70, 79
 | 83, 70, 72, 80, 79, 73, 74, 78, 80, 79, 77, 71, 77
 | 83, 71, 73, 80, 78, 73, 75, 78, 79, 79, 77, 71, 77
 | 83, 70, 72, 80, 79, 73, 74, 78, 80, 79, 77, 71, 77
 | 83, 70, 72, 81, 79, 73, 74, 78, 80, 79, 77, 71, 77
 | 83, 69, 72, 81, 79, 72, 74, 78, 80, 80, 77, 70, 78
 | 82, 69, 71, 81, 80, 71, 73, 78, 80, 81, 77, 70, 79
 | 83, 70, 73, 80, 78, 73, 74, 78, 80, 79, 77, 71, 77
 | 83, 70, 72, 80, 79, 72, 74, 78, 80, 80, 77, 70, 78
 | 83, 69, 72, 81, 80, 72, 74, 78, 80, 80, 77, 70, 78
 | 83, 69, 72, 81, 80, 72, 74, 78, 80, 80, 77, 70, 78
 | 82, 70, 72, 81, 79, 73, 74, 79, 80, 79, 77, 71, 77
 | 82, 70, 72, 81, 79, 72, 74, 78, 80, 80, 77, 70, 78
 | 83, 68, 71, 80, 82, 71, 73, 77, 81, 83, 76, 69, 80
 | 83, 69, 71, 80, 81, 71, 73, 77, 82, 82, 76, 69, 80
 | 82, 69, 71, 80, 81, 72, 73, 78, 82, 81, 76, 70, 79
 | 83, 69, 71, 80, 80, 72, 73, 78, 81, 81, 76, 70, 79
 | 83, 70, 72, 80, 79, 73, 74, 78, 81, 80, 76, 70, 78
 | 83, 70, 72, 80, 79, 73, 74, 78, 80, 80, 76, 71, 77
 | 83, 71, 73, 80, 78, 74, 74, 78, 80, 79, 76, 72, 77
 | 83, 72, 73, 80, 77, 75, 75, 78, 79, 78, 76, 72, 76
 | 83, 72, 73, 80, 78, 74, 75, 78, 79, 79, 76, 72, 76
 | 83, 71, 73, 80, 78, 74, 74, 78, 80, 79, 76, 72, 77
 | 83, 71, 72, 80, 79, 73, 74, 78, 80, 79, 76, 71, 77
 | 83, 70, 72, 80, 79, 73, 74, 78, 81, 80, 76, 71, 78
 | 83, 70, 72, 80, 79, 72, 74, 78, 81, 80, 76, 70, 78
 | 83, 69, 72, 80, 80, 72, 73, 78, 81, 81, 76, 70, 78
 | 82, 69, 71, 80, 80, 72, 73, 77, 82, 81, 76, 70, 79
 | 83, 69, 71, 80, 81, 71, 73, 77, 82, 82, 76, 70, 79
 | 83, 68, 71, 80, 81, 71, 73, 77, 82, 82, 76, 69, 80
 | 83, 68, 71, 79, 82, 71, 73, 77, 81, 83, 76, 69, 80
 | 83, 69, 71, 80, 81, 71, 73, 77, 82, 82, 76, 69, 80
 | 82, 69, 71, 80, 81, 71, 73, 77, 82, 82, 76, 70, 80
 | 82, 69, 71, 80, 81, 72, 73, 77, 82, 82, 76, 70, 79
 | 83, 69, 71, 80, 80, 72, 73, 77, 82, 81, 76, 70, 79
 | 83, 70, 72, 80, 80, 72, 73, 77, 82, 81, 76, 70, 79
 | 83, 69, 71, 80, 80, 72, 73, 77, 82, 81, 76, 70, 79
 | 83, 70, 72, 80, 80, 72, 73, 77, 82, 81, 76, 70, 78
 | 83, 70, 72, 80, 79, 72, 74, 77, 81, 80, 76, 70, 78
 | 83, 70, 72, 80, 80, 72, 74, 78, 81, 81, 76, 70, 78
 | 83, 70, 72, 80, 80, 72, 73, 77, 81, 81, 76, 70, 78
 | 83, 70, 72, 80, 80, 72, 73, 77, 81, 81, 76, 70, 78
 | 83, 70, 72, 80, 79, 73, 74, 77, 81, 80, 76, 71, 78
 | 83, 70, 72, 80, 79, 73, 74, 77, 81, 80, 76, 71, 78
 | 83, 71, 72, 79, 79, 73, 74, 77, 81, 80, 76, 71, 77
 | 83, 71, 72, 79, 79, 73, 74, 77, 81, 80, 76, 71, 78
 | 82, 70, 72, 79, 79, 73, 74, 77, 81, 80, 76, 71, 78
 | 83, 71, 72, 79, 79, 73, 74, 77, 80, 79, 76, 71, 77
 | 83, 71, 73, 79, 78, 74, 74, 77, 80, 79, 76, 71, 77
 | 83, 72, 73, 79, 78, 74, 75, 77, 80, 79, 76, 72, 77
 | 82, 72, 73, 79, 78, 74, 75, 77, 80, 79, 76, 72, 77
 | 82, 72, 73, 79, 78, 75, 75, 77, 79, 78, 76, 72, 76
 | 83, 72, 73, 79, 78, 74, 75, 78, 79, 78, 76, 72, 76
 | 82, 72, 73, 79, 78, 74, 75, 77, 79, 78, 76, 72, 76
 | 83, 72, 73, 79, 77, 75, 75, 77, 79, 78, 76, 72, 76
 | 82, 73, 74, 79, 77, 75, 75, 77, 79, 78, 76, 73, 76
 | 82, 73, 74, 79, 77, 75, 75, 77, 79, 78, 76, 73, 76
 | 82, 72, 73, 79, 78, 74, 75, 77, 80, 79, 76, 72, 77
 | 83, 71, 73, 79, 78, 74, 74, 77, 80, 79, 76, 72, 77
 | 83, 71, 72, 79, 79, 73, 74, 77, 81, 80, 76, 71, 78
 | 83, 70, 72, 80, 79, 73, 74, 77, 81, 80, 76, 71, 78
 | 83, 70, 72, 80, 80, 72, 73, 77, 81, 81, 76, 70, 78
 | 83, 68, 71, 80, 82, 71, 73, 77, 82, 83, 76, 69, 80
 | 83, 69, 71, 80, 81, 71, 73, 77, 82, 82, 76, 69, 80
 | 82, 69, 71, 80, 81, 71, 73, 77, 82, 82, 76, 70, 79
 | 83, 69, 71, 80, 81, 71, 73, 77, 82, 82, 76, 69, 80
 | 83, 69, 71, 79, 82, 71, 73, 77, 82, 83, 76, 69, 80
 | 83, 69, 71, 80, 80, 72, 73, 77, 82, 81, 76, 70, 79
 | 83, 70, 72, 80, 79, 73, 74, 78, 81, 80, 76, 71, 78
 | 83, 71, 72, 80, 79, 73, 74, 78, 80, 80, 76, 71, 77
 | 83, 71, 72, 80, 79, 73, 74, 78, 80, 79, 76, 71, 77
 | 83, 71, 73, 80, 78, 73, 74, 78, 80, 79, 76, 71, 77
 | 83, 72, 73, 80, 78, 74, 75, 78, 79, 78, 76, 72, 76
 | 83, 71, 73, 80, 78, 74, 74, 78, 80, 79, 76, 72, 77
 | 83, 72, 74, 79, 77, 75, 75, 78, 79, 78, 76, 73, 76
 | 82, 73, 74, 79, 77, 75, 75, 77, 79, 78, 76, 73, 76
 | 83, 69, 71, 79, 82, 71, 73, 77, 82, 83, 76, 69, 80
 | 83, 69, 71, 79, 81, 71, 73, 77, 82, 82, 76, 69, 80
 | 83, 69, 71, 79, 82, 71, 73, 77, 82, 82, 76, 69, 80
 | 83, 69, 71, 79, 81, 71, 73, 77, 82, 82, 76, 69, 80
 | 82, 69, 71, 79, 81, 71, 73, 77, 82, 82, 76, 70, 80
 | 82, 69, 71, 79, 81, 71, 73, 77, 82, 82, 76, 70, 80
 | 83, 69, 71, 79, 81, 71, 73, 77, 82, 82, 76, 69, 80
 | 82, 69, 71, 80, 81, 72, 73, 77, 82, 82, 76, 70, 79
 | 83, 69, 71, 79, 80, 72, 73, 77, 83, 81, 76, 70, 79
 | 83, 70, 71, 79, 80, 72, 73, 77, 82, 81, 76, 70, 79
 | 82, 70, 72, 79, 80, 72, 73, 77, 82, 81, 76, 70, 78
 | 82, 71, 72, 79, 79, 73, 74, 77, 81, 80, 76, 71, 78
 | 83, 71, 72, 79, 79, 73, 74, 77, 81, 80, 76, 71, 78
 | 82, 72, 73, 79, 78, 74, 74, 77, 80, 79, 76, 72, 77
 | 83, 71, 72, 79, 79, 73, 74, 77, 81, 80, 76, 71, 77
 | 82, 71, 72, 79, 79, 73, 74, 77, 81, 80, 76, 71, 78
 | 82, 70, 72, 79, 79, 73, 74, 77, 82, 80, 76, 71, 78
 | 83, 70, 72, 79, 80, 72, 73, 77, 82, 81, 76, 70, 79
 | 82, 69, 71, 79, 81, 72, 73, 77, 83, 81, 76, 70, 79
 | 83, 70, 71, 79, 80, 72, 73, 77, 82, 81, 76, 70, 79
 | 82, 70, 72, 79, 80, 73, 73, 77, 82, 81, 76, 71, 78
 | 83, 70, 72, 79, 80, 72, 73, 77, 82, 81, 76, 70, 79
 | 83, 70, 71, 79, 80, 72, 73, 77, 82, 81, 76, 70, 79
 | 83, 70, 71, 79, 80, 72, 73, 77, 82, 81, 76, 70, 79
 | 83, 70, 72, 79, 79, 73, 74, 77, 82, 80, 76, 71, 78
 | 82, 70, 72, 79, 80, 73, 73, 77, 82, 81, 76, 71, 78
 | 83, 71, 72, 79, 79, 73, 74, 77, 81, 80, 76, 71, 78
 | 83, 71, 72, 79, 79, 73, 74, 77, 81, 80, 76, 71, 78
 | 83, 71, 73, 79, 79, 74, 74, 77, 81, 80, 76, 71, 77
 | 83, 72, 73, 79, 78, 74, 74, 77, 80, 79, 76, 72, 77
 | 83, 71, 72, 79, 79, 73, 74, 77, 81, 80, 76, 71, 78
 | 83, 71, 72, 79, 79, 73, 74, 77, 81, 80, 76, 71, 78
 | 82, 70, 72, 79, 80, 73, 74, 77, 82, 80, 76, 71, 78
 | 82, 70, 72, 79, 80, 72, 73, 77, 82, 81, 76, 70, 78
 | 83, 70, 71, 79, 80, 72, 73, 77, 82, 81, 76, 70, 79
 | 83, 71, 73, 79, 79, 74, 74, 77, 81, 80, 76, 71, 77
 | 82, 72, 73, 79, 78, 74, 74, 77, 80, 79, 76, 72, 77
 | 82, 72, 73, 79, 78, 74, 74, 77, 80, 79, 76, 72, 77
 | 82, 72, 73, 79, 78, 74, 74, 77, 81, 79, 76, 72, 77
 | 82, 71, 73, 79, 79, 74, 74, 77, 81, 80, 76, 72, 77
 | 83, 71, 72, 79, 79, 73, 74, 77, 81, 80, 76, 71, 78
 | 83, 71, 72, 79, 79, 73, 74, 77, 81, 80, 76, 71, 78
 | 83, 71, 72, 79, 79, 73, 74, 77, 82, 80, 76, 71, 78
 | 82, 70, 72, 79, 80, 73, 73, 77, 82, 81, 76, 71, 78
 | 82, 70, 71, 79, 80, 72, 73, 77, 83, 81, 76, 70, 79
 | 83, 70, 71, 79, 80, 72, 73, 77, 82, 81, 76, 70, 79
 | 83, 70, 72, 79, 80, 72, 73, 77, 82, 81, 76, 70, 79
 | 83, 70, 72, 79, 80, 72, 73, 77, 82, 81, 76, 71, 79
 | 83, 71, 72, 79, 80, 73, 73, 77, 82, 80, 76, 71, 78
 | 83, 71, 72, 79, 79, 73, 74, 77, 82, 80, 76, 71, 78
 | 83, 71, 72, 79, 79, 73, 74, 77, 81, 80, 76, 71, 78
 | 83, 71, 72, 79, 79, 73, 74, 77, 81, 80, 76, 71, 78
 | 83, 71, 72, 79, 79, 73, 74, 77, 82, 80, 76, 71, 78
 | 83, 70, 72, 79, 80, 73, 73, 77, 82, 81, 76, 71, 78
 | 83, 70, 72, 79, 80, 72, 73, 77, 82, 81, 76, 71, 79 |];
 P=[2, 2, 2, 2, 2, 2, 2, 2, 2, 2, 2, 2, 2, 2, 6, 6, 6, 6, 2, 2, 2, 2, 2, 2, 2, 2, 2, 2, 2, 2, 2, 2, 2, 2, 2, 2, 2, 2, 6, 6, 6, 6, 6, 2, 2, 2, 2, 2, 2, 2, 2, 2, 2, 2, 2, 2, 2, 2, 2, 2, 2, 2, 2, 2, 2, 2, 2, 2, 2, 2, 2, 6, 6, 6, 6, 6, 6, 2, 2, 2, 2, 2, 2, 2, 2, 2, 6, 2, 2, 2, 2, 2, 2, 2, 2, 2, 2, 2, 2, 2, 6, 2, 2, 2, 6, 6, 6, 6, 12, 12, 12, 12, 12, 12, 12, 12, 12, 12, 12, 12, 12, 12, 12, 12, 12, 12, 12, 12, 12, 12, 12, 12, 3, 3, 3, 3, 3, 3, 3, 3, 3, 3, 3, 3, 3, 3, 3, 3, 3, 3, 3, 3, 3, 3, 3, 3, 3, 3, 3, 7, 7, 7, 7, 7, 7, 7, 7, 7, 7, 7, 7, 7, 7, 7, 7, 7, 7, 7, 7, 7, 7, 7, 7, 7, 7, 7, 7, 7, 7, 7, 7, 7, 7, 7, 7, 7, 7, 7, 7, 7, 7, 7, 7, 7, 7, 7, 7, 7, 7, 7, 7, 7, 7, 7, 7, 7, 7, 7, 7, 7, 7, 7, 7, 7, 7, 7, 7, 7, 7, 7, 7, 7, 8, 8, 8, 8, 8, 8, 8, 8, 8, 8, 8, 8, 8, 8, 8, 8, 8, 8, 8, 8, 8, 8, 8, 8, 8, 8, 8, 8, 8, 8, 11, 8, 4, 4, 4, 4, 4, 4, 4, 4, 4, 4, 4, 4, 4, 4, 4, 4, 8, 4, 4, 4, 4, 4, 4, 4, 4, 4, 4, 4, 4, 4, 4, 4, 4, 4, 4, 4, 4, 4, 4, 4, 4, 4, 4, 4, 4, 4, 4, 4, 4, 4, 4, 4, 4, 4, 4, 4, 4, 4, 4, 4, 4, 4, 4, 4, 4, 4, 4, 4, 4, 4, 4, 4, 4, 4, 4, 4, 4, 4, 4, 4, 4, 4, 5, 5, 5, 5, 5, 5, 5, 5, 5, 5, 5, 5, 13, 5, 5, 5, 5, 5, 5, 5, 5, 5, 5, 5, 5, 5, 5, 5, 5, 5, 5, 5, 5, 5, 5, 5, 5, 5, 5, 5, 5, 5, 5, 5, 5, 5, 5, 5, 5, 5, 5, 5, 5, 5, 5, 5, 5, 5, 5, 5, 5, 5, 5, 5, 5, 5, 5, 5, 5, 5, 5, 5, 5, 5, 5, 5, 5, 5, 5, 5, 5, 5, 5, 5, 5, 5, 5, 5, 5, 5, 5, 5, 1, 1, 1, 1, 1, 1, 1, 1, 1, 1, 1, 1, 1, 1, 1, 1, 1, 1, 1, 1, 1, 1, 1, 1, 1, 1, 1, 1, 1, 1, 1, 1, 10, 1, 1, 1, 1, 1, 1, 1, 1, 1, 1, 1, 1, 1, 1, 1, 1, 10, 1, 1, 1, 1, 1, 1, 1, 1, 1, 1, 1, 1, 1, 1, 1, 1, 1, 1, 1, 1, 1, 1, 1, 1, 1, 1, 1, 1, 1, 1, 1, 1, 1, 1, 1, 1, 1, 1, 1, 1, 1, 1, 1, 1, 1, 10, 1, 10, 1, 1, 1, 1, 1, 9, 1, 1, 1, 1, 1, 1, 1, 1, 1, 9, 1, 1, 1, 1, 1, 1, 1, 1, 1, 1, 1, 1, 1, 1, 1, 1, 1, 1, 1, 1, 1, 1, 1, 1, 1, 9, 1, 1, 1, 1, 1, 1, 1, 1, 1, 1 ];